
Log started (V11.0.0) Sun Apr 13 12:58:59 2008

Tried aggregator 1 time.
Reduced MIP has 110 rows, 1001 columns, and 2010 nonzeros.
Presolve time =    0.02 sec.
Clique table members: 100.
MIP emphasis: balance optimality and feasibility.
MIP search method: dynamic search.
Parallel mode: none, using 1 thread.
Root relaxation solution time =    0.02 sec.

        Nodes                                         Cuts/
   Node  Left     Objective  IInf  Best Integer     Best Node    ItCnt     Gap

*     0+    0                         5016.0000       95.3817      235   98.10%
*     0+    0                          113.0000       95.3817      235   15.59%
      0     0       96.0000    26      113.0000     Fract: 10      246   15.04%
*     0+    0                          112.0000       96.0000      246   14.29%
      0     0       96.0000    26      112.0000     Covers: 1      247   14.29%
      0     0       96.0000    26      112.0000     Covers: 1      251   14.29%
*     0+    0                          108.0000       96.0000      251   11.11%
*     0+    0                          106.0000       96.0000      251    9.43%
*     0+    0                          105.0000       96.0000      251    8.57%
      0     2       96.0000    26      105.0000       96.0000      251    8.57%
*    70+   49                          104.0000       96.0000     1914    7.69%
    100    75       99.0000    16      104.0000       96.0000     2790    7.69%
*   200+  108                          103.0000       96.0000     5689    6.80%
    200   109       96.0174    23      103.0000       96.0000     5689    6.80%
    300   188      100.6520    17      103.0000       96.0000     7783    6.80%
    400   244    infeasible            103.0000       96.0000     9553    6.80%
*   492+  242                          101.0000       96.0000    11052    4.95%
*   493+  161                          100.0000       97.0000    12389    3.00%
    500   163       98.0000    17      100.0000       97.0000    12773    3.00%
*   541   108      integral     0       99.0000       97.0000    14933    2.02%
    600   110       97.0000    55       99.0000       97.0000    18891    2.02%
    700   135       98.0000    24       99.0000       97.0000    25999    2.02%
    800   185    infeasible             99.0000       98.0000    37267    1.01%
    900   212    infeasible             99.0000       98.0000    51333    1.01%
   1000   212    infeasible             99.0000       98.0000    68476    1.01%
Elapsed time =   6.91 sec. (tree size =  0.08 MB, solutions = 11)
*  1051     0      integral     0       98.0000       98.0000    70883    0.00%

Cover cuts applied:  271
Mixed integer rounding cuts applied:  20
Gomory fractional cuts applied:  5

Solution pool: 12 solutions saved.

MIP - Integer optimal solution:  Objective = 9.8000000000e+001
Solution time =    7.19 sec.  Iterations = 70883  Nodes = 1052


Incumbent solution
Variable Name           Solution Value
Cmax                         98.000000
X_1_1                         1.000000
X_2_10                        1.000000
X_3_6                         1.000000
X_4_6                         1.000000
X_5_6                         1.000000
X_6_3                         1.000000
X_7_2                         1.000000
X_8_5                         1.000000
X_9_8                         1.000000
X_10_3                        1.000000
X_11_7                        1.000000
X_12_5                        1.000000
X_13_5                        1.000000
X_14_6                        1.000000
X_15_10                       1.000000
X_16_3                        1.000000
X_17_6                        1.000000
X_18_3                        1.000000
X_19_8                        1.000000
X_20_10                       1.000000
X_21_2                        1.000000
X_22_3                        1.000000
X_23_4                        1.000000
X_24_1                        1.000000
X_25_10                       1.000000
X_26_1                        1.000000
X_27_6                        1.000000
X_28_10                       1.000000
X_29_4                        1.000000
X_30_5                        1.000000
X_31_2                        1.000000
X_32_1                        1.000000
X_33_4                        1.000000
X_34_2                        1.000000
X_35_8                        1.000000
X_36_9                        1.000000
X_37_3                        1.000000
X_38_2                        1.000000
X_39_8                        1.000000
X_40_10                       1.000000
X_41_6                        1.000000
X_42_7                        1.000000
X_43_2                        1.000000
X_44_5                        1.000000
X_45_8                        1.000000
X_46_8                        1.000000
X_47_9                        1.000000
X_48_6                        1.000000
X_49_5                        1.000000
X_50_3                        1.000000
X_51_9                        1.000000
X_52_4                        1.000000
X_53_10                       1.000000
X_54_3                        1.000000
X_55_2                        1.000000
X_56_4                        1.000000
X_57_8                        1.000000
X_58_2                        1.000000
X_59_7                        1.000000
X_60_9                        1.000000
X_61_8                        1.000000
X_62_3                        1.000000
X_63_6                        1.000000
X_64_4                        1.000000
X_65_1                        1.000000
X_66_1                        1.000000
X_67_1                        1.000000
X_68_6                        1.000000
X_69_10                       1.000000
X_70_4                        1.000000
X_71_8                        1.000000
X_72_2                        1.000000
X_73_4                        1.000000
X_74_7                        1.000000
X_75_10                       1.000000
X_76_4                        1.000000
X_77_8                        1.000000
X_78_8                        1.000000
X_79_5                        1.000000
X_80_6                        1.000000
X_81_2                        1.000000
X_82_9                        1.000000
X_83_7                        1.000000
X_84_1                        1.000000
X_85_4                        1.000000
X_86_10                       1.000000
X_87_9                        1.000000
X_88_3                        1.000000
X_89_9                        1.000000
X_90_5                        1.000000
X_91_7                        1.000000
X_92_1                        1.000000
X_93_2                        1.000000
X_94_9                        1.000000
X_95_10                       1.000000
X_96_7                        1.000000
X_97_2                        1.000000
X_98_2                        1.000000
X_99_8                        1.000000
X_100_1                       1.000000
All other variables in the range 1-1001 are 0.
